scenarios/sols/small/emicp_milp/028.sol
objective value:                    0.830537021126362
x(0,2,0)                                            1 	(obj:0)
x(1,4,1)                                            1 	(obj:0)
x(2,3,0)                                            1 	(obj:0)
x(3,10,0)                                           1 	(obj:0)
x(3,11,1)                                           1 	(obj:0)
x(4,3,1)                                            1 	(obj:0)
x(10,0,0)                                           1 	(obj:0)
x(11,1,1)                                           1 	(obj:0)
xc(0,9)                                             1 	(obj:0)
xc(2,0)                                             1 	(obj:0)
xc(3,1)                                             1 	(obj:0)
xc(4,1)                                             1 	(obj:0)
u(2,0)                             0.0364307505865333 	(obj:0)
u(3,0)                              0.394723881619003 	(obj:0)
u(3,1)                              0.638385906966376 	(obj:0)
u(4,1)                              0.224823480054637 	(obj:0)
u(7,1)                              0.830537021126362 	(obj:0)
u(10,0)                             0.830537021126362 	(obj:0)
u(10,1)                             0.418720351331161 	(obj:0)
u(11,0)                             0.460648274553819 	(obj:0)
u(11,1)                             0.830537021126362 	(obj:0)
u(12,0)                            0.0359054852290299 	(obj:0)
u(12,1)                             0.439133133784421 	(obj:0)
u(13,0)                              0.32186238044593 	(obj:0)
u(13,1)                               0.1887389468571 	(obj:0)
u(14,0)                              0.62752586325252 	(obj:0)
u(14,1)                             0.221411312751739 	(obj:0)
u(15,0)                              0.15981105551789 	(obj:0)
u(15,1)                             0.303611403559491 	(obj:0)
u(16,0)                             0.358810881865919 	(obj:0)
u(16,1)                             0.380241260185761 	(obj:0)
u(17,0)                             0.542560847889449 	(obj:0)
u(17,1)                               0.1872863130019 	(obj:0)
u(18,0)                             0.510066769223689 	(obj:0)
u(18,1)                             0.582117050900449 	(obj:0)
u(19,0)                              0.27761432476366 	(obj:0)
u(19,1)                             0.627808439623891 	(obj:0)
f(0,9,0)                                            1 	(obj:0)
f(0,9,1)                                            1 	(obj:0)
f(0,9,2)                                            1 	(obj:0)
f(0,9,3)                                            1 	(obj:0)
f(0,9,4)                                            1 	(obj:0)
f(1,4,1)                                            1 	(obj:0)
f(2,0,2)                                            1 	(obj:0)
f(3,10,1)                                           1 	(obj:0)
f(3,10,3)                                           1 	(obj:0)
f(3,10,4)                                           1 	(obj:0)
f(4,3,1)                                            1 	(obj:0)
f(4,3,4)                                            1 	(obj:0)
f(10,0,1)                                           1 	(obj:0)
f(10,0,3)                                           1 	(obj:0)
f(10,0,4)                                           1 	(obj:0)
z_r(0,)                             0.830537021126362 	(obj:0)
z_r(1,)                             0.830537021126362 	(obj:0)
z                                   0.830537021126362 	(obj:1)
